Version identifier: 12.10.0.0 | 2019-11-26 | 843d4de
CPXPARAM_Read_DataCheck                          1
CPXPARAM_RandomSeed                              201903125
CPXPARAM_TimeLimit                               7200
CPXPARAM_Output_IntSolFilePrefix                 "solucoes/t_sol_ID001M003J004_ZintTrue_minla_fav_ub0/sol"
Lazy constraint(s) or lazy constraint/branch callback is present.
    Disabling dual reductions (CPX_PARAM_REDUCE) in presolve.
    Disabling non-linear reductions (CPX_PARAM_PRELINEAR) in presolve.
    Disabling presolve reductions that prevent crushing forms.
Tried aggregator 1 time.
Reduced MIP has 48 rows, 31 columns, and 132 nonzeros.
Reduced MIP has 18 binaries, 0 generals, 0 SOSs, and 0 indicators.
Presolve time = 0.00 sec. (0.04 ticks)
Probing time = 0.00 sec. (0.01 ticks)
Tried aggregator 1 time.
Reduced MIP has 48 rows, 31 columns, and 132 nonzeros.
Reduced MIP has 18 binaries, 0 generals, 0 SOSs, and 0 indicators.
Presolve time = 0.00 sec. (0.03 ticks)
Probing time = 0.00 sec. (0.01 ticks)
Problem contains 168 lazy constraints.
MIP emphasis: balance optimality and feasibility.
MIP search method: dynamic search.
Parallel mode: deterministic, using up to 8 threads.
Root relaxation solution time = 0.00 sec. (0.06 ticks)

        Nodes                                         Cuts/
   Node  Left     Objective  IInf  Best Integer    Best Bound    ItCnt     Gap

      0     0       23.0000     6                     23.0000       13         
      0     0       25.4000     6                    Cuts: 13       33         
*     0+    0                           33.0000       25.4000            23.03%
New incumbent written to file 'solucoes/t_sol_ID001M003J004_ZintTrue_minla_fav_ub0/sol-00001.sol'.
      0     0       29.0000     6       33.0000      Cuts: 11       43   12.12%
*     0+    0                           31.0000       29.0000             6.45%
New incumbent written to file 'solucoes/t_sol_ID001M003J004_ZintTrue_minla_fav_ub0/sol-00002.sol'.
      0     0       29.0000     6       31.0000      Cuts: 10       48    6.45%
*     0+    0                           29.0000       29.0000             0.00%
New incumbent written to file 'solucoes/t_sol_ID001M003J004_ZintTrue_minla_fav_ub0/sol-00003.sol'.
      0     0        cutoff             29.0000       29.0000       48    0.00%
Elapsed time = 0.00 sec. (1.06 ticks, tree = 0.01 MB, solutions = 3)

Implied bound cuts applied:  1
Flow cuts applied:  3
Mixed integer rounding cuts applied:  1
Gomory fractional cuts applied:  1

Root node processing (before b&c):
  Real time             =    0.00 sec. (1.06 ticks)
Parallel b&c, 8 threads:
  Real time             =    0.00 sec. (0.00 ticks)
  Sync time (average)   =    0.00 sec.
  Wait time (average)   =    0.00 sec.
                          ------------
Total (root+branch&cut) =    0.00 sec. (1.06 ticks)
